(set-logic QF_S)
(declare-fun var0 () String)
(declare-fun var1 () Int)
(declare-fun var2 () Bool)
(declare-fun var3 () String)
(declare-fun var4 () Int)
(declare-fun var5 () Bool)
(declare-fun var6 () String)
(declare-fun var7 () Int)
(declare-fun var8 () Bool)
(assert (not var8))
(assert (not (str.in.re var3 re.allchar)))
(assert (< var1 1))
(assert (> (str.len (str.at var6 var7)) (str.len (str.substr var0 var4 var1))))
(check-sat)